Route 1: 16 33 10 42 6 29 2 25 20 5 48 14 19 9 11 4 15 35 3 21 41 31 43 38 39 1 26 37 27 18 34 46 7

Route 2: 105 49 66 65 51 40 22 75 69 8 17 13 12 50 32 60 30 108 24 62 89 54 71 80 44 79 47 83 23 36 136 28

Route 3: 72 67 63 61 96 74 59 45 64 57 113 104 111 84 53 56 115 121 55 85 98 76 97 78 88 87 82 58 52 114 68 70

Route 4: 178 167 119 134 166 102 99 94 77 182 152 73 86 93 81 100 112 120 118 125 109 149 95 103 90 91

Route 5: 184 110 148 159 146 161 147 175 116 183 154 168 163 172 151 150 191 177 160 92 122 106 126 101 158 127 145 128 143 138 144 142 107

Route 6: 171 176 198 157 137 174 131 164 169 192 185 180 140 123 135 124 117 170 165 162 187 129 173

Route 7: 196 197 199 155 179 132 139 141 130 153 133 156 195 189 190 194 193 186 188

Route 8: 200 181

Vehicles: 8

Distance: 3923.63

